%%% static parameters %%%
timespan = 1;
Clients_N = [4000];
Demand_W = [15];
Lt0 = [4];
Lt1 = [4];
SS_ = [0.85];
DS_D = [20];
K = [200];
MA = [500];
HC = [0.05];
%%% dynamic parameters %%%
lost_ratio_sales_ret_th = 0.0008873368652973181;
lost_ratio_sales_ret_w = 34;
lost_ratio_sales_dis_th = 0.00016938925231376367;
lost_ratio_sales_dis_w = 41;
lost_ratio_sales_fac_th = 0.0004848682028995699;
lost_ratio_sales_fac_w = 3;
stock_customer_MA_mean_relative_th = 0.2593604683267706;
stock_customer_MA_mean_relative_w = 85;
stock_distributor_MA_mean_relative_th = 0.3059827608729512;
stock_distributor_MA_mean_relative_w = 5;
stock_retailer_MA_mean_relative_th = 0.62384164701541;
stock_retailer_MA_mean_relative_w = 54;
stock_factory_MA_mean_relative_th = 0.32171936574952786;
stock_factory_MA_mean_relative_w = 94;
